c Nemesis formula in 6CNF in accordance with DIMACS CNF format:
c    Filename: MCNC/c432/c432.tdl
c    Formula number 135
c    1266 variables (range: 2 - 1267)
c    1031 clauses
c
c p cnf 1267 1031
p cnf 424 1031
142	0
38	0
424	0
142	0
-143	0
141	0
153	-155	0
-153	155	0
141	143	0
-141	-143	0
153	-155	0
-153	155	0
-158	-161	0
-420	-161	0
-420	-158	0
141	153	0
-141	-153	0
420	-143	0
-420	143	0
420	-155	0
-420	155	0
143	-155	0
-143	155	0
153	154	0
-153	-154	0
-158	-161	0
-420	-161	0
-420	-158	0
-39	-422	0
37	-422	0
39	-423	0
-37	-423	0
-423	421	0
-422	421	0
-79	-37	0
-67	-37	0
-68	38	0
-68	-79	0
-79	-39	0
-69	-39	0
-76	-67	0
-71	-67	0
-74	-67	0
-138	-67	0
-72	68	0
-72	-138	0
-72	-74	0
-72	-76	0
-76	-69	0
-73	-69	0
-74	-69	0
-138	-69	0
75	-138	0
-75	138	0
75	-139	0
-75	139	0
75	-147	0
-75	147	0
-301	-75	0
-297	-75	0
302	297	0
-302	-297	0
15	-305	0
-15	305	0
15	-306	0
-15	306	0
53	-93	0
-53	93	0
53	-94	0
-53	94	0
53	-98	0
-53	98	0
53	-102	0
-53	102	0
53	-105	0
-53	105	0
53	-119	0
-53	119	0
53	-121	0
-53	121	0
53	-124	0
-53	124	0
53	-129	0
-53	129	0
53	-163	0
-53	163	0
53	-197	0
-53	197	0
53	-211	0
-53	211	0
53	-234	0
-53	234	0
53	-240	0
-53	240	0
53	-294	0
-53	294	0
53	-304	0
-53	304	0
53	-318	0
-53	318	0
53	-331	0
-53	331	0
53	-333	0
-53	333	0
53	-348	0
-53	348	0
53	-366	0
-53	366	0
60	53	0
253	53	0
166	53	0
172	53	0
178	172	0
-178	-172	0
104	-177	0
-104	177	0
104	-178	0
-104	178	0
-186	-104	0
-181	-104	0
-183	-104	0
174	-182	0
-174	182	0
174	-183	0
-174	183	0
174	-190	0
-174	190	0
174	-193	0
-174	193	0
34	174	0
-34	-174	0
12	-180	0
-12	180	0
12	-181	0
-12	181	0
179	-186	0
-179	186	0
179	-187	0
-179	187	0
-261	-410	0
185	-410	0
261	-411	0
-185	-411	0
-411	179	0
-410	179	0
42	-80	0
-42	80	0
42	-81	0
-42	81	0
42	-84	0
-42	84	0
42	-101	0
-42	101	0
42	-112	0
-42	112	0
42	-162	0
-42	162	0
42	-185	0
-42	185	0
42	-208	0
-42	208	0
42	-231	0
-42	231	0
42	-249	0
-42	249	0
42	-281	0
-42	281	0
42	-293	0
-42	293	0
42	-303	0
-42	303	0
42	-311	0
-42	311	0
42	-332	0
-42	332	0
42	-337	0
-42	337	0
42	-345	0
-42	345	0
42	-373	0
-42	373	0
42	-392	0
-42	392	0
276	42	0
257	42	0
43	42	0
268	42	0
335	268	0
-335	-268	0
269	-335	0
-269	335	0
269	-336	0
-269	336	0
-357	-269	0
-358	-269	0
271	-274	0
-271	274	0
271	-275	0
-271	275	0
271	-291	0
-271	291	0
271	-358	0
-271	358	0
26	271	0
-26	-271	0
7	-356	0
-7	356	0
7	-357	0
-7	357	0
-110	-43	0
-46	-43	0
41	-45	0
-41	45	0
41	-46	0
-41	46	0
-209	-41	0
-201	-41	0
194	-201	0
-194	201	0
194	-202	0
-194	202	0
204	194	0
-204	-194	0
32	-204	0
-32	204	0
32	-205	0
-32	205	0
32	-218	0
-32	218	0
5	-209	0
-5	209	0
5	-210	0
-5	210	0
44	-110	0
-44	110	0
44	-111	0
-44	111	0
-346	-44	0
-343	-44	0
338	-341	0
-338	341	0
338	-342	0
-338	342	0
338	-343	0
-338	343	0
338	-355	0
-338	355	0
9	338	0
-9	-338	0
21	-346	0
-21	346	0
21	-347	0
-21	347	0
-260	-257	0
-258	-257	0
-262	-257	0
184	-261	0
-184	261	0
184	-262	0
-184	262	0
-192	-184	0
-193	-184	0
25	-191	0
-25	191	0
25	-192	0
-25	192	0
319	258	0
312	258	0
320	258	0
390	320	0
-390	-320	0
379	-390	0
-379	390	0
379	-391	0
-379	391	0
-388	-379	0
-389	-379	0
380	-385	0
-380	385	0
380	-386	0
-380	386	0
380	-389	0
-380	389	0
380	-397	0
-380	397	0
19	380	0
-19	-380	0
17	-387	0
-17	387	0
17	-388	0
-17	388	0
314	312	0
-314	-312	0
310	-313	0
-310	313	0
310	-314	0
-310	314	0
-377	-310	0
-378	-310	0
225	-374	0
-225	374	0
225	-375	0
-225	375	0
225	-378	0
-225	378	0
371	225	0
-371	-225	0
35	-370	0
-35	370	0
35	-371	0
-35	371	0
30	-376	0
-30	376	0
30	-377	0
-30	377	0
322	319	0
-322	-319	0
83	-321	0
-83	321	0
83	-322	0
-83	322	0
-308	-83	0
-309	-83	0
86	-91	0
-86	91	0
86	-92	0
-86	92	0
86	-158	0
-86	158	0
86	-309	0
-86	309	0
28	86	0
-28	-86	0
4	-307	0
-4	307	0
4	-308	0
-4	308	0
227	-259	0
-227	259	0
227	-260	0
-227	260	0
-232	-227	0
-229	-227	0
222	-228	0
-222	228	0
222	-229	0
-222	229	0
243	222	0
-243	-222	0
6	-243	0
-6	243	0
6	-244	0
-6	244	0
6	-248	0
-6	248	0
10	-232	0
-10	232	0
10	-233	0
-10	233	0
279	276	0
-279	-276	0
277	-279	0
-277	279	0
277	-280	0
-277	280	0
-360	-277	0
-361	-277	0
282	-285	0
-282	285	0
282	-286	0
-282	286	0
282	-301	0
-282	301	0
282	-361	0
-282	361	0
27	282	0
-27	-282	0
11	-359	0
-11	359	0
11	-360	0
-11	360	0
-170	-166	0
-316	-166	0
-266	-166	0
168	-266	0
-168	266	0
168	-267	0
-168	267	0
168	-330	0
-168	330	0
-393	-168	0
-384	-168	0
-386	-168	0
18	-383	0
-18	383	0
18	-384	0
-18	384	0
382	-393	0
-382	393	0
382	-394	0
-382	394	0
-391	-398	0
392	-398	0
391	-399	0
-392	-399	0
-399	382	0
-398	382	0
167	-316	0
-167	316	0
167	-317	0
-167	317	0
-325	-167	0
-364	-167	0
-374	-167	0
22	-364	0
-22	364	0
22	-365	0
-22	365	0
224	-325	0
-224	325	0
224	-326	0
-224	326	0
-313	-404	0
311	-404	0
313	-405	0
-311	-405	0
-405	224	0
-404	224	0
85	-169	0
-85	169	0
85	-170	0
-85	170	0
-89	-85	0
-164	-85	0
-91	-85	0
23	-164	0
-23	164	0
23	-165	0
-23	165	0
82	-89	0
-82	89	0
82	-90	0
-82	90	0
-321	-416	0
84	-416	0
321	-417	0
-84	-417	0
-417	82	0
-416	82	0
171	-253	0
-171	253	0
171	-254	0
-171	254	0
238	171	0
-238	-171	0
223	-238	0
-223	238	0
223	-239	0
-223	239	0
-251	-223	0
-235	-223	0
-228	-223	0
33	-235	0
-33	235	0
33	-236	0
-33	236	0
226	-251	0
-226	251	0
226	-252	0
-226	252	0
-259	-408	0
249	-408	0
259	-409	0
-249	-409	0
-409	226	0
-408	226	0
-65	-60	0
-122	-60	0
-117	-60	0
-127	-60	0
63	-127	0
-63	127	0
63	-128	0
-63	128	0
63	-196	0
-63	196	0
-200	-63	0
-212	-63	0
-202	-63	0
29	-212	0
-29	212	0
29	-213	0
-29	213	0
40	-199	0
-40	199	0
40	-200	0
-40	200	0
-45	-418	0
80	-418	0
45	-419	0
-80	-419	0
-419	40	0
-418	40	0
62	-117	0
-62	117	0
62	-118	0
-62	118	0
62	-120	0
-62	120	0
-273	-62	0
-295	-62	0
-275	-62	0
31	-295	0
-31	295	0
31	-296	0
-31	296	0
270	-272	0
-270	272	0
270	-273	0
-270	273	0
-336	-400	0
337	-400	0
336	-401	0
-337	-401	0
-401	270	0
-400	270	0
61	-122	0
-61	122	0
61	-123	0
-61	123	0
-339	-61	0
-349	-61	0
-341	-61	0
20	-349	0
-20	349	0
20	-350	0
-20	350	0
109	-339	0
-109	339	0
109	-340	0
-109	340	0
-111	-412	0
112	-412	0
111	-413	0
-112	-413	0
-413	109	0
-412	109	0
52	-64	0
-52	64	0
52	-65	0
-52	65	0
-283	-52	0
-305	-52	0
-285	-52	0
278	-283	0
-278	283	0
278	-284	0
-278	284	0
-280	-406	0
281	-406	0
280	-407	0
-281	-407	0
-407	278	0
-406	278	0
2	-299	0
-2	299	0
2	-300	0
-2	300	0
58	-175	0
-58	175	0
58	-176	0
-58	176	0
58	-221	0
-58	221	0
58	-288	0
-58	288	0
58	-298	0
-58	298	0
58	-352	0
-58	352	0
58	-363	0
-58	363	0
58	-381	0
-58	381	0
49	58	0
59	58	0
54	58	0
-57	-54	0
-199	-57	0
-198	-57	0
216	198	0
205	198	0
203	-216	0
-203	216	0
203	-217	0
-203	217	0
14	203	0
-14	-203	0
126	125	0
-126	-125	0
-128	-126	0
-129	-126	0
196	195	0
197	195	0
-340	-56	0
-353	-56	0
-342	-56	0
8	-353	0
-8	353	0
8	-354	0
-8	354	0
-95	-59	0
-87	-59	0
-96	-59	0
324	96	0
334	324	0
-394	-334	0
-396	-334	0
-397	-334	0
3	-395	0
-3	395	0
3	-396	0
-3	396	0
-330	-329	0
-331	-329	0
-264	-263	0
-265	-263	0
78	-255	0
-78	255	0
78	-256	0
-78	256	0
78	-265	0
-78	265	0
98	78	0
-98	-78	0
267	264	0
-267	-264	0
367	323	0
370	323	0
369	367	0
-369	-367	0
1	-368	0
-1	368	0
1	-369	0
-1	369	0
-317	-402	0
318	-402	0
317	-403	0
-318	-403	0
-403	315	0
-402	315	0
-88	-87	0
-90	-87	0
-156	-87	0
-92	-87	0
16	-156	0
-16	156	0
16	-157	0
-16	157	0
-169	-414	0
94	-414	0
169	-415	0
-94	-415	0
-415	88	0
-414	88	0
106	95	0
-106	-95	0
-108	-106	0
-252	-108	0
-245	-108	0
247	245	0
248	245	0
241	-246	0
-241	246	0
241	-247	0
-241	247	0
13	241	0
-13	-241	0
254	250	0
256	250	0
239	237	0
240	237	0
-187	-107	0
-189	-107	0
-190	-107	0
36	-188	0
-36	188	0
36	-189	0
-36	189	0
-47	-49	0
48	47	0
-48	-47	0
115	48	0
-272	-115	0
-289	-115	0
-274	-115	0
24	-289	0
-24	289	0
24	-290	0
-24	290	0
-120	-114	0
-121	-114	0
116	113	0
-116	-113	0
118	116	0
119	116	0
-284	-51	0
-299	-51	0
-286	-51	0
219	74	0
220	74	0
66	-132	0
-66	132	0
66	-133	0
-66	133	0
66	-135	0
-66	135	0
66	-220	0
-66	220	0
206	66	0
-206	-66	0
-344	-206	0
351	344	0
-351	-344	0
-355	-351	0
131	-136	0
-131	136	0
131	-137	0
-131	137	0
131	-140	0
-131	140	0
131	-148	0
-131	148	0
131	-219	0
-131	219	0
292	131	0
287	131	0
-291	-287	0
146	71	0
141	71	0
149	71	0
146	73	0
143	73	0
149	73	0
144	-149	0
-144	149	0
144	-150	0
-144	150	0
152	144	0
-152	-144	0
134	-151	0
-134	151	0
134	-152	0
-134	152	0
-230	-134	0
244	230	0
97	-214	0
-97	214	0
97	-215	0
-97	215	0
97	-242	0
-97	242	0
221	97	0
-221	-97	0
-161	-141	0
99	-160	0
-99	160	0
99	-161	0
-99	161	0
-100	-99	0
173	100	0
-173	-100	0
-182	-173	0
-158	-153	0
130	-145	0
-130	145	0
130	-146	0
-130	146	0
218	130	0
207	130	0
70	-76	0
-70	76	0
70	-77	0
-70	77	0
-327	-70	0
328	327	0
-328	-327	0
-385	-328	0
-372	-79	0
-375	-79	0
362	372	0
-362	-372	0
-421	424	0
-424	421	0
-158	-153	-159	0
-420	-157	-159	0
-420	-175	-153	0
-157	-175	-161	0
-158	-154	-159	0
-420	-157	-159	0
-420	-175	-154	0
-157	-175	-161	0
422	39	-37	0
423	-39	37	0
-421	423	422	0
37	79	67	0
-38	37	39	0
-38	-37	-39	0
39	79	69	0
-68	67	69	0
-68	-67	-69	0
-300	-298	-75	0
-359	-303	-302	0
-306	-304	-302	0
304	303	302	0
306	303	302	0
304	359	302	0
306	359	302	0
410	261	-185	0
411	-261	185	0
-179	411	410	0
269	357	358	0
43	110	46	0
41	209	201	0
44	346	343	0
184	192	193	0
379	388	389	0
310	377	378	0
83	308	309	0
227	232	229	0
277	360	361	0
398	391	-392	0
399	-391	392	0
-382	399	398	0
404	313	-311	0
405	-313	311	0
-224	405	404	0
416	321	-84	0
417	-321	84	0
-82	417	416	0
408	259	-249	0
409	-259	249	0
-226	409	408	0
418	45	-80	0
419	-45	80	0
-40	419	418	0
400	336	-337	0
401	-336	337	0
-270	401	400	0
412	111	-112	0
413	-111	112	0
-109	413	412	0
406	280	-281	0
407	-280	281	0
-278	407	406	0
-56	-55	-54	0
57	55	54	0
57	56	54	0
-125	-195	-57	0
-198	-216	-205	0
126	128	129	0
-195	-196	-197	0
124	123	55	0
-124	-123	55	0
-124	123	-55	0
124	-123	-55	0
-324	-315	-96	0
-324	-326	-96	0
-324	-323	-96	0
329	263	324	0
-334	-263	-324	0
-334	-329	-324	0
329	330	331	0
263	264	265	0
-323	-367	-370	0
402	317	-318	0
403	-317	318	0
-315	403	402	0
414	169	-94	0
415	-169	94	0
-88	415	414	0
-107	-103	-106	0
108	103	106	0
108	107	106	0
-250	-237	-108	0
-245	-247	-248	0
-250	-254	-256	0
-237	-239	-240	0
105	177	103	0
-105	-177	103	0
-105	177	-103	0
105	-177	-103	0
-51	-50	-49	0
47	50	49	0
47	51	49	0
114	113	48	0
-115	-113	-48	0
-115	-114	-48	0
114	120	121	0
-116	-118	-119	0
93	64	50	0
-93	-64	50	0
-93	64	-50	0
93	-64	-50	0
-74	-219	-220	0
-347	-345	-206	0
-350	-348	-206	0
-354	-352	-351	0
355	352	351	0
355	354	351	0
-131	-292	-287	0
-290	-288	-287	0
291	288	287	0
291	290	287	0
-356	-293	-292	0
-296	-294	-292	0
294	293	292	0
296	293	292	0
294	356	292	0
296	356	292	0
-72	71	73	0
-72	-71	-73	0
-233	-231	-134	0
-236	-234	-134	0
246	242	230	0
-244	-242	-230	0
-244	-246	-230	0
-153	-159	-141	0
161	159	141	0
161	153	141	0
-191	-101	-99	0
-180	-102	-99	0
-188	-176	-173	0
182	176	173	0
182	188	173	0
-157	-175	-153	0
158	175	153	0
158	157	153	0
-307	-162	-159	0
-165	-163	-159	0
163	162	159	0
165	162	159	0
163	307	159	0
165	307	159	0
217	215	130	0
-210	-208	-207	0
-213	-211	-207	0
211	208	207	0
213	208	207	0
211	210	207	0
213	210	207	0
-387	-332	-70	0
-383	-333	-70	0
-395	-381	-328	0
385	381	328	0
385	395	328	0
-373	-376	-79	0
-363	-368	-362	0
-366	-365	-362	0
365	368	362	0
366	368	362	0
365	363	362	0
366	363	362	0
-157	-175	-153	-159	0
158	175	161	159	0
158	157	161	159	0
158	175	161	153	0
158	157	161	153	0
-157	-175	-154	-159	0
158	175	161	159	0
158	157	161	159	0
158	175	161	154	0
158	157	161	154	0
297	301	298	75	0
297	301	300	75	0
104	186	181	183	0
257	260	258	262	0
-258	-319	-312	-320	0
166	170	316	266	0
168	393	384	386	0
167	325	364	374	0
85	89	164	91	0
223	251	235	228	0
63	200	212	202	0
62	273	295	275	0
61	339	349	341	0
52	283	305	285	0
-58	-49	-59	-54	0
198	199	195	57	0
198	199	125	57	0
56	340	353	342	0
59	95	87	96	0
323	326	315	96	0
334	394	396	397	0
245	252	237	108	0
245	252	250	108	0
107	187	189	190	0
115	272	289	274	0
51	284	299	286	0
344	348	345	206	0
344	350	345	206	0
344	348	347	206	0
344	350	347	206	0
-71	-146	-141	-149	0
-73	-146	-143	-149	0
230	234	231	134	0
230	236	231	134	0
230	234	233	134	0
230	236	233	134	0
100	102	101	99	0
100	180	101	99	0
100	102	191	99	0
100	180	191	99	0
-207	-218	-215	-130	0
-207	-218	-217	-130	0
327	333	332	70	0
327	383	332	70	0
327	333	387	70	0
327	383	387	70	0
375	372	376	79	0
375	372	373	79	0
420	158	161	153	159	0
420	158	157	175	161	0
420	158	161	154	159	0
420	158	157	175	161	0
67	76	71	74	138	0
69	76	73	74	138	0
-53	-60	-253	-166	-172	0
-42	-276	-257	-43	-268	0
60	65	122	117	127	0
87	88	90	156	92	0
